Minimize
  - 48 y_0 - 55 y_1 - 52 y_2 - 46 y_3 - 43 y_4 - 39 y_5 - 37 y_6 - 44 y_7
   - 64 y_8 - 33 y_9 - 15 y_10 - 35 y_11 - 42 y_12 - 34 y_13 - 54 y_15
   - 38 y_16 - 37 y_17 - 47 y_18 - 40 y_19 - 19 y_20 - 30 y_21 - 41 y_22
   - 48 y_23 - 51 y_24 - 35 y_25 - 53 y_26 - 51 y_27 - 39 y_28 - 44 y_29
   - 29 y_30 - 49 y_31 - 42 y_32 - 36 y_33 - 13 y_34 - 29 y_35 - 10 y_36
   - 63 y_37 - 50 y_38 - 24 y_39 - 15 y_40 - 60 y_41 - 45 y_42 - 32 y_43
   - 20 y_44 - 8 y_45 - 50 y_46 - 26 y_47 - 44 y_48 - 53 y_49
   + 1912 Constant
Subject To
 c_0: y_45 = 1
 c_1_0: y_0 + y_18 >= 1
 c_1_1: y_1 + y_41 >= 1
 c_1_2: y_2 + y_15 + y_24 >= 1
 c_1_3: y_3 + y_6 + y_19 + y_32 + y_48 >= 1
 c_1_4: y_4 + y_7 >= 1
 c_1_5: y_5 >= 1
 c_1_6: y_3 + y_6 + y_19 + y_32 >= 1
 c_1_7: y_4 + y_7 >= 1
 c_1_8: y_8 >= 1
 c_1_9: y_9 >= 1
 c_1_10: y_10 + y_45 >= 1
 c_1_11: y_11 + y_13 + y_33 + y_43 + y_48 >= 1
 c_1_12: y_12 + y_22 + y_23 >= 1
 c_1_13: y_11 + y_13 + y_33 + y_43 + y_48 >= 1
 c_1_14: y_14 + y_36 + y_45 >= 1
 c_1_15: y_2 + y_15 + y_24 >= 1
 c_1_16: y_16 + y_21 >= 1
 c_1_17: y_17 + y_42 >= 1
 c_1_18: y_0 + y_18 + y_27 >= 1
 c_1_19: y_3 + y_6 + y_19 + y_32 >= 1
 c_1_20: y_20 + y_34 + y_39 + y_44 >= 1
 c_1_21: y_16 + y_21 >= 1
 c_1_22: y_12 + y_22 >= 1
 c_1_23: y_12 + y_23 + y_38 + y_49 >= 1
 c_1_24: y_2 + y_15 + y_24 + y_46 >= 1
 c_1_25: y_25 >= 1
 c_1_26: y_26 >= 1
 c_1_27: y_18 + y_27 >= 1
 c_1_28: y_28 >= 1
 c_1_29: y_29 >= 1
 c_1_30: y_30 >= 1
 c_1_31: y_31 >= 1
 c_1_32: y_3 + y_6 + y_19 + y_32 >= 1
 c_1_33: y_11 + y_13 + y_33 + y_43 >= 1
 c_1_34: y_20 + y_34 + y_44 >= 1
 c_1_35: y_35 + y_47 >= 1
 c_1_36: y_14 + y_36 >= 1
 c_1_37: y_37 >= 1
 c_1_38: y_23 + y_38 >= 1
 c_1_39: y_20 + y_39 + y_44 >= 1
 c_1_40: y_40 >= 1
 c_1_41: y_1 + y_41 >= 1
 c_1_42: y_17 + y_42 + y_46 >= 1
 c_1_43: y_11 + y_13 + y_33 + y_43 >= 1
 c_1_44: y_20 + y_34 + y_39 + y_44 >= 1
 c_1_45: y_10 + y_14 + y_45 >= 1
 c_1_46: y_24 + y_42 + y_46 >= 1
 c_1_47: y_35 + y_47 >= 1
 c_1_48: y_3 + y_11 + y_13 + y_48 >= 1
 c_1_49: y_23 + y_49 >= 1
Bounds
 Constant = 1
Binaries
 y_0 y_1 y_2 y_3 y_4 y_5 y_6 y_7 y_8 y_9 y_10 y_11 y_12 y_13 y_14 y_15 y_16
 y_17 y_18 y_19 y_20 y_21 y_22 y_23 y_24 y_25 y_26 y_27 y_28 y_29 y_30 y_31
 y_32 y_33 y_34 y_35 y_36 y_37 y_38 y_39 y_40 y_41 y_42 y_43 y_44 y_45 y_46
 y_47 y_48 y_49
End
